%
% Generated Sudoku 25x25
% Density approximation: 0.50
%
x = array2d(1..n, 1..n, [
   8,   6,   _,   _,  24,  14,  22,   _,   5,  16,   4,   9,   3,   _,   _,  21,  13,   _,  12,   _,  20,   7,   _,  23,   _,
  17,   _,   _,  14,   7,   _,   _,  12,  21,   _,   2,   _,   _,  13,   _,   4,   _,  10,  11,  23,   _,  15,   _,  18,  16,
   _,   _,   _,  13,   _,   _,   _,   _,  10,   6,   _,  11,   _,  17,  12,   _,   _,  15,   8,   _,   _,   _,  22,  14,  19,
  23,   _,  11,  16,   _,  24,   8,   _,   _,   9,   5,  25,  15,   _,   7,   _,   1,  22,   _,   _,  17,  10,  21,   2,   _,
   2,   _,   _,   _,  22,   _,   _,   _,  17,  25,  24,  16,  21,  14,   8,   _,  19,   _,   _,   _,   5,   _,   _,   3,  12,
  22,   9,   _,   _,  20,   8,   _,   _,  23,   _,   _,   _,   _,   3,  21,   _,  10,   _,   _,   _,   _,  19,  25,   _,   _,
  10,  16,  12,   5,   _,  21,   _,   _,   _,  15,  17,  23,   _,   _,  18,   _,   6,  20,  22,   1,   2,   _,   _,  13,   _,
   _,   _,   _,   _,   _,  11,  12,  10,   _,   _,  13,  14,   7,   5,  24,   _,   _,  19,   _,   _,   _,   _,  23,   _,   _,
   _,   _,   3,   _,  19,   _,   _,  14,   _,  20,   _,   2,  22,   _,  10,   _,  12,   _,  21,   9,   _,  18,   6,  11,   _,
  11,  15,   _,   _,   4,   _,  24,   _,  22,   _,   9,   _,   _,   _,  19,  25,   _,   _,  13,   _,   _,  12,  16,  10,   _,
   _,   _,   7,  11,   1,   5,   _,   _,  15,   _,  19,   4,   _,   _,   _,  20,  14,   _,   _,  25,   _,   _,   _,  22,   2,
   _,  23,  20,   _,   _,   3,   6,   _,  12,   _,   _,  15,   _,  21,  17,  10,   4,   _,   _,   _,  18,  24,   _,  16,   _,
  21,  19,  25,  18,   _,   _,  20,  16,  24,  22,  14,   7,   5,   _,   _,   _,   _,  12,   6,  17,   _,   _,   4,   _,   3,
   _,   _,   _,   _,   2,   _,   _,   _,  14,   _,  10,   3,   _,   _,   _,   _,  22,  11,   _,  18,   6,   _,   _,  15,   _,
   _,   _,   _,  15,   _,   _,   _,  23,   _,  17,   _,  18,   _,   _,  13,   3,   5,   _,  24,   8,   _,  11,   _,   9,   _,
   _,   _,  10,   9,   _,   _,   _,   _,   _,  14,   8,  21,  19,  15,   _,   _,   _,   _,   _,  24,   _,   _,   3,  17,   1,
   _,   _,  13,   4,   _,   _,  17,   _,   8,  24,   6,   5,   _,  20,   _,  23,  11,   1,  16,   _,   _,   2,   _,   _,  18,
  24,   _,   _,   _,  18,   _,   4,   _,   _,  10,   _,   _,   9,   _,  11,   _,   _,   _,   5,   _,  16,   6,   _,   _,   _,
   _,   7,  19,  23,   6,   _,   3,  21,  18,   _,  22,   _,  10,   1,  25,   _,  15,   4,   2,   _,   _,   _,  14,  24,   _,
   _,   _,   8,   _,  11,   _,   1,  19,   _,   _,   7,  24,  16,  18,   4,   _,   _,   _,   _,   _,   _,   _,  10,   _,   _,
   4,   _,  22,   _,  13,   6,   _,  17,   _,   _,  12,   _,  18,   _,   _,   _,   3,   _,  25,   _,   _,   _,   _,   5,  24,
   _,   _,   5,  20,   9,  12,  21,   8,   _,  19,   _,   _,  17,   _,  15,  13,   _,  24,   _,  22,   3,   _,   2,   _,   _,
  25,   _,   _,   _,  23,  22,   _,   _,   _,  18,  21,   _,   _,   _,   _,   _,   _,   8,   _,   _,   _,   _,   _,   _,   _,
   1,   8,  16,   3,   _,  13,   5,  25,   _,   2,  23,   _,  14,  24,   9,   _,  21,   _,   4,  12,  10,  20,  15,  19,   _,
   _,   _,   _,   _,   _,  10,   _,   _,   9,   4,   _,  22,  13,   2,   _,   6,   _,   _,   1,   _,  25,  17,  18,   7,   _
]);

n = 25;
